c Arquivo convertido de bcsstk06.mtx
p edge 420 3720
e 1 5
e 1 7
e 2 4
e 2 8
e 3 9
e 4 5
e 4 6
e 4 7
e 4 8
e 4 9
e 4 10
e 4 12
e 4 13
e 4 15
e 4 46
e 4 47
e 4 48
e 4 49
e 4 50
e 4 51
e 5 6
e 5 7
e 5 8
e 5 9
e 5 11
e 5 46
e 5 47
e 5 48
e 5 49
e 5 50
e 5 51
e 6 7
e 6 8
e 6 9
e 6 10
e 6 12
e 6 13
e 6 15
e 6 46
e 6 47
e 6 48
e 6 49
e 6 50
e 6 51
e 7 8
e 7 9
e 7 10
e 7 11
e 7 12
e 7 13
e 7 15
e 7 46
e 7 47
e 7 48
e 7 49
e 7 50
e 7 51
e 8 9
e 8 10
e 8 12
e 8 13
e 8 14
e 8 15
e 8 46
e 8 47
e 8 48
e 8 49
e 8 50
e 8 51
e 9 10
e 9 12
e 9 13
e 9 15
e 9 46
e 9 47
e 9 48
e 9 49
e 9 50
e 9 51
e 10 11
e 10 12
e 10 13
e 10 14
e 10 15
e 10 16
e 10 18
e 10 19
e 10 21
e 10 52
e 10 53
e 10 54
e 10 55
e 10 56
e 10 57
e 11 12
e 11 13
e 11 14
e 11 15
e 11 17
e 11 52
e 11 53
e 11 54
e 11 55
e 11 56
e 11 57
e 12 13
e 12 14
e 12 15
e 12 16
e 12 18
e 12 19
e 12 21
e 12 52
e 12 53
e 12 54
e 12 55
e 12 56
e 12 57
e 13 14
e 13 15
e 13 16
e 13 18
e 13 19
e 13 21
e 13 52
e 13 53
e 13 54
e 13 55
e 13 56
e 13 57
e 14 15
e 14 20
e 14 52
e 14 53
e 14 54
e 14 55
e 14 56
e 14 57
e 15 16
e 15 18
e 15 19
e 15 21
e 15 52
e 15 53
e 15 54
e 15 55
e 15 56
e 15 57
e 16 17
e 16 18
e 16 19
e 16 20
e 16 21
e 16 22
e 16 24
e 16 25
e 16 27
e 16 58
e 16 59
e 16 60
e 16 61
e 16 62
e 16 63
e 17 18
e 17 19
e 17 20
e 17 21
e 17 23
e 17 58
e 17 59
e 17 60
e 17 61
e 17 62
e 17 63
e 18 19
e 18 20
e 18 21
e 18 22
e 18 24
e 18 25
e 18 27
e 18 58
e 18 59
e 18 60
e 18 61
e 18 62
e 18 63
e 19 20
e 19 21
e 19 22
e 19 24
e 19 25
e 19 27
e 19 58
e 19 59
e 19 60
e 19 61
e 19 62
e 19 63
e 20 21
e 20 26
e 20 58
e 20 59
e 20 60
e 20 61
e 20 62
e 20 63
e 21 22
e 21 24
e 21 25
e 21 27
e 21 58
e 21 59
e 21 60
e 21 61
e 21 62
e 21 63
e 22 23
e 22 24
e 22 25
e 22 26
e 22 27
e 22 28
e 22 30
e 22 31
e 22 33
e 22 64
e 22 65
e 22 66
e 22 67
e 22 68
e 22 69
e 23 24
e 23 25
e 23 26
e 23 27
e 23 29
e 23 64
e 23 65
e 23 66
e 23 67
e 23 68
e 23 69
e 24 25
e 24 26
e 24 27
e 24 28
e 24 30
e 24 31
e 24 33
e 24 64
e 24 65
e 24 66
e 24 67
e 24 68
e 24 69
e 25 26
e 25 27
e 25 28
e 25 30
e 25 31
e 25 33
e 25 64
e 25 65
e 25 66
e 25 67
e 25 68
e 25 69
e 26 27
e 26 32
e 26 64
e 26 65
e 26 66
e 26 67
e 26 68
e 26 69
e 27 28
e 27 30
e 27 31
e 27 33
e 27 64
e 27 65
e 27 66
e 27 67
e 27 68
e 27 69
e 28 29
e 28 30
e 28 31
e 28 32
e 28 33
e 28 34
e 28 36
e 28 37
e 28 39
e 28 70
e 28 71
e 28 72
e 28 73
e 28 74
e 28 75
e 29 30
e 29 31
e 29 32
e 29 33
e 29 35
e 29 70
e 29 71
e 29 72
e 29 73
e 29 74
e 29 75
e 30 31
e 30 32
e 30 33
e 30 34
e 30 36
e 30 37
e 30 39
e 30 70
e 30 71
e 30 72
e 30 73
e 30 74
e 30 75
e 31 32
e 31 33
e 31 34
e 31 35
e 31 36
e 31 37
e 31 39
e 31 70
e 31 71
e 31 72
e 31 73
e 31 74
e 31 75
e 32 33
e 32 34
e 32 36
e 32 37
e 32 38
e 32 39
e 32 70
e 32 71
e 32 72
e 32 73
e 32 74
e 32 75
e 33 34
e 33 36
e 33 37
e 33 39
e 33 70
e 33 71
e 33 72
e 33 73
e 33 74
e 33 75
e 34 35
e 34 36
e 34 37
e 34 38
e 34 39
e 34 41
e 34 76
e 34 77
e 34 78
e 34 79
e 34 80
e 34 81
e 35 36
e 35 37
e 35 38
e 35 39
e 35 40
e 35 76
e 35 77
e 35 78
e 35 79
e 35 80
e 35 81
e 36 37
e 36 38
e 36 39
e 36 76
e 36 77
e 36 78
e 36 79
e 36 80
e 36 81
e 37 38
e 37 39
e 37 40
e 37 76
e 37 77
e 37 78
e 37 79
e 37 80
e 37 81
e 38 39
e 38 41
e 38 76
e 38 77
e 38 78
e 38 79
e 38 80
e 38 81
e 39 42
e 39 76
e 39 77
e 39 78
e 39 79
e 39 80
e 39 81
e 43 44
e 43 45
e 43 46
e 43 47
e 43 48
e 43 49
e 43 50
e 43 51
e 44 45
e 44 46
e 44 47
e 44 48
e 44 49
e 44 50
e 44 51
e 45 46
e 45 47
e 45 48
e 45 49
e 45 50
e 45 51
e 46 47
e 46 48
e 46 49
e 46 50
e 46 51
e 46 52
e 46 54
e 46 55
e 46 57
e 46 88
e 46 89
e 46 90
e 46 91
e 46 92
e 46 93
e 47 48
e 47 49
e 47 50
e 47 51
e 47 53
e 47 88
e 47 89
e 47 90
e 47 91
e 47 92
e 47 93
e 48 49
e 48 50
e 48 51
e 48 52
e 48 54
e 48 55
e 48 57
e 48 88
e 48 89
e 48 90
e 48 91
e 48 92
e 48 93
e 49 50
e 49 51
e 49 52
e 49 53
e 49 54
e 49 55
e 49 57
e 49 88
e 49 89
e 49 90
e 49 91
e 49 92
e 49 93
e 50 51
e 50 52
e 50 54
e 50 55
e 50 56
e 50 57
e 50 88
e 50 89
e 50 90
e 50 91
e 50 92
e 50 93
e 51 52
e 51 53
e 51 54
e 51 55
e 51 57
e 51 88
e 51 89
e 51 90
e 51 91
e 51 92
e 51 93
e 52 53
e 52 54
e 52 55
e 52 56
e 52 57
e 52 58
e 52 60
e 52 61
e 52 63
e 52 94
e 52 95
e 52 96
e 52 97
e 52 98
e 52 99
e 53 54
e 53 55
e 53 56
e 53 57
e 53 59
e 53 94
e 53 95
e 53 96
e 53 97
e 53 98
e 53 99
e 54 55
e 54 56
e 54 57
e 54 58
e 54 60
e 54 61
e 54 63
e 54 94
e 54 95
e 54 96
e 54 97
e 54 98
e 54 99
e 55 56
e 55 57
e 55 58
e 55 60
e 55 61
e 55 63
e 55 94
e 55 95
e 55 96
e 55 97
e 55 98
e 55 99
e 56 57
e 56 58
e 56 60
e 56 61
e 56 62
e 56 63
e 56 94
e 56 95
e 56 96
e 56 97
e 56 98
e 56 99
e 57 58
e 57 59
e 57 60
e 57 61
e 57 63
e 57 94
e 57 95
e 57 96
e 57 97
e 57 98
e 57 99
e 58 59
e 58 60
e 58 61
e 58 62
e 58 63
e 58 64
e 58 66
e 58 67
e 58 69
e 58 100
e 58 101
e 58 102
e 58 103
e 58 104
e 58 105
e 59 60
e 59 61
e 59 62
e 59 63
e 59 65
e 59 100
e 59 101
e 59 102
e 59 103
e 59 104
e 59 105
e 60 61
e 60 62
e 60 63
e 60 64
e 60 66
e 60 67
e 60 69
e 60 100
e 60 101
e 60 102
e 60 103
e 60 104
e 60 105
e 61 62
e 61 63
e 61 64
e 61 65
e 61 66
e 61 67
e 61 69
e 61 100
e 61 101
e 61 102
e 61 103
e 61 104
e 61 105
e 62 63
e 62 64
e 62 66
e 62 67
e 62 68
e 62 69
e 62 100
e 62 101
e 62 102
e 62 103
e 62 104
e 62 105
e 63 64
e 63 65
e 63 66
e 63 67
e 63 69
e 63 100
e 63 101
e 63 102
e 63 103
e 63 104
e 63 105
e 64 65
e 64 66
e 64 67
e 64 68
e 64 69
e 64 70
e 64 72
e 64 73
e 64 75
e 64 106
e 64 107
e 64 108
e 64 109
e 64 110
e 64 111
e 65 66
e 65 67
e 65 68
e 65 69
e 65 71
e 65 106
e 65 107
e 65 108
e 65 109
e 65 110
e 65 111
e 66 67
e 66 68
e 66 69
e 66 70
e 66 72
e 66 73
e 66 75
e 66 106
e 66 107
e 66 108
e 66 109
e 66 110
e 66 111
e 67 68
e 67 69
e 67 70
e 67 71
e 67 72
e 67 73
e 67 75
e 67 106
e 67 107
e 67 108
e 67 109
e 67 110
e 67 111
e 68 69
e 68 70
e 68 72
e 68 73
e 68 74
e 68 75
e 68 106
e 68 107
e 68 108
e 68 109
e 68 110
e 68 111
e 69 70
e 69 71
e 69 72
e 69 73
e 69 75
e 69 106
e 69 107
e 69 108
e 69 109
e 69 110
e 69 111
e 70 71
e 70 72
e 70 73
e 70 74
e 70 75
e 70 76
e 70 78
e 70 79
e 70 81
e 70 112
e 70 113
e 70 114
e 70 115
e 70 116
e 70 117
e 71 72
e 71 73
e 71 74
e 71 75
e 71 77
e 71 112
e 71 113
e 71 114
e 71 115
e 71 116
e 71 117
e 72 73
e 72 74
e 72 75
e 72 76
e 72 78
e 72 79
e 72 81
e 72 112
e 72 113
e 72 114
e 72 115
e 72 116
e 72 117
e 73 74
e 73 75
e 73 76
e 73 77
e 73 78
e 73 79
e 73 81
e 73 112
e 73 113
e 73 114
e 73 115
e 73 116
e 73 117
e 74 75
e 74 76
e 74 78
e 74 79
e 74 80
e 74 81
e 74 112
e 74 113
e 74 114
e 74 115
e 74 116
e 74 117
e 75 76
e 75 77
e 75 78
e 75 79
e 75 81
e 75 112
e 75 113
e 75 114
e 75 115
e 75 116
e 75 117
e 76 77
e 76 78
e 76 79
e 76 80
e 76 81
e 76 83
e 76 118
e 77 78
e 77 79
e 77 80
e 77 81
e 77 82
e 77 84
e 77 119
e 77 120
e 77 122
e 77 123
e 78 79
e 78 80
e 78 81
e 78 83
e 78 119
e 78 120
e 78 122
e 78 123
e 79 80
e 79 81
e 79 82
e 79 84
e 79 121
e 80 81
e 80 83
e 80 119
e 80 120
e 80 122
e 80 123
e 81 82
e 81 84
e 81 119
e 81 120
e 81 122
e 81 123
e 82 84
e 85 86
e 85 87
e 85 88
e 85 89
e 85 90
e 85 91
e 85 92
e 85 93
e 86 87
e 86 88
e 86 89
e 86 90
e 86 91
e 86 92
e 86 93
e 87 88
e 87 89
e 87 90
e 87 91
e 87 92
e 87 93
e 88 89
e 88 90
e 88 91
e 88 92
e 88 93
e 88 94
e 88 96
e 88 97
e 88 99
e 88 130
e 88 131
e 88 132
e 88 133
e 88 134
e 88 135
e 89 90
e 89 91
e 89 92
e 89 93
e 89 95
e 89 130
e 89 131
e 89 132
e 89 133
e 89 134
e 89 135
e 90 91
e 90 92
e 90 93
e 90 94
e 90 96
e 90 97
e 90 99
e 90 130
e 90 131
e 90 132
e 90 133
e 90 134
e 90 135
e 91 92
e 91 93
e 91 94
e 91 95
e 91 96
e 91 97
e 91 99
e 91 130
e 91 131
e 91 132
e 91 133
e 91 134
e 91 135
e 92 93
e 92 94
e 92 96
e 92 97
e 92 98
e 92 99
e 92 130
e 92 131
e 92 132
e 92 133
e 92 134
e 92 135
e 93 94
e 93 95
e 93 96
e 93 97
e 93 99
e 93 130
e 93 131
e 93 132
e 93 133
e 93 134
e 93 135
e 94 95
e 94 96
e 94 97
e 94 98
e 94 99
e 94 100
e 94 102
e 94 103
e 94 105
e 94 136
e 95 96
e 95 97
e 95 98
e 95 99
e 95 101
e 95 137
e 95 138
e 95 140
e 95 141
e 96 97
e 96 98
e 96 99
e 96 100
e 96 102
e 96 103
e 96 105
e 96 137
e 96 138
e 96 140
e 96 141
e 97 98
e 97 99
e 97 100
e 97 102
e 97 103
e 97 105
e 97 139
e 98 99
e 98 100
e 98 102
e 98 103
e 98 104
e 98 105
e 98 137
e 98 138
e 98 140
e 98 141
e 99 100
e 99 101
e 99 102
e 99 103
e 99 105
e 99 137
e 99 138
e 99 140
e 99 141
e 100 101
e 100 102
e 100 103
e 100 104
e 100 105
e 100 106
e 100 108
e 100 109
e 100 111
e 100 142
e 100 143
e 100 144
e 100 145
e 100 146
e 100 147
e 101 102
e 101 103
e 101 104
e 101 105
e 101 107
e 101 142
e 101 143
e 101 144
e 101 145
e 101 146
e 101 147
e 102 103
e 102 104
e 102 105
e 102 106
e 102 108
e 102 109
e 102 111
e 102 142
e 102 143
e 102 144
e 102 145
e 102 146
e 102 147
e 103 104
e 103 105
e 103 106
e 103 107
e 103 108
e 103 109
e 103 111
e 103 142
e 103 143
e 103 144
e 103 145
e 103 146
e 103 147
e 104 105
e 104 106
e 104 108
e 104 109
e 104 110
e 104 111
e 104 142
e 104 143
e 104 144
e 104 145
e 104 146
e 104 147
e 105 106
e 105 107
e 105 108
e 105 109
e 105 111
e 105 142
e 105 143
e 105 144
e 105 145
e 105 146
e 105 147
e 106 107
e 106 108
e 106 109
e 106 110
e 106 111
e 106 112
e 106 114
e 106 115
e 106 117
e 106 148
e 106 149
e 106 150
e 106 151
e 106 152
e 106 153
e 107 108
e 107 109
e 107 110
e 107 111
e 107 113
e 107 148
e 107 149
e 107 150
e 107 151
e 107 152
e 107 153
e 108 109
e 108 110
e 108 111
e 108 112
e 108 114
e 108 115
e 108 117
e 108 148
e 108 149
e 108 150
e 108 151
e 108 152
e 108 153
e 109 110
e 109 111
e 109 112
e 109 113
e 109 114
e 109 115
e 109 117
e 109 148
e 109 149
e 109 150
e 109 151
e 109 152
e 109 153
e 110 111
e 110 112
e 110 114
e 110 115
e 110 116
e 110 117
e 110 148
e 110 149
e 110 150
e 110 151
e 110 152
e 110 153
e 111 112
e 111 113
e 111 114
e 111 115
e 111 117
e 111 148
e 111 149
e 111 150
e 111 151
e 111 152
e 111 153
e 112 113
e 112 114
e 112 115
e 112 116
e 112 117
e 112 118
e 112 120
e 112 121
e 112 123
e 112 154
e 112 155
e 112 156
e 112 157
e 112 158
e 112 159
e 113 114
e 113 115
e 113 116
e 113 117
e 113 119
e 113 154
e 113 155
e 113 156
e 113 157
e 113 158
e 113 159
e 114 115
e 114 116
e 114 117
e 114 118
e 114 120
e 114 121
e 114 123
e 114 154
e 114 155
e 114 156
e 114 157
e 114 158
e 114 159
e 115 116
e 115 117
e 115 118
e 115 119
e 115 120
e 115 121
e 115 123
e 115 154
e 115 155
e 115 156
e 115 157
e 115 158
e 115 159
e 116 117
e 116 118
e 116 120
e 116 121
e 116 122
e 116 123
e 116 154
e 116 155
e 116 156
e 116 157
e 116 158
e 116 159
e 117 118
e 117 119
e 117 120
e 117 121
e 117 123
e 117 154
e 117 155
e 117 156
e 117 157
e 117 158
e 117 159
e 118 119
e 118 120
e 118 121
e 118 122
e 118 123
e 118 125
e 118 160
e 118 161
e 118 162
e 118 163
e 118 164
e 118 165
e 119 120
e 119 121
e 119 122
e 119 123
e 119 124
e 119 126
e 119 160
e 119 161
e 119 162
e 119 163
e 119 164
e 119 165
e 120 121
e 120 122
e 120 123
e 120 125
e 120 160
e 120 161
e 120 162
e 120 163
e 120 164
e 120 165
e 121 122
e 121 123
e 121 124
e 121 126
e 121 160
e 121 161
e 121 162
e 121 163
e 121 164
e 121 165
e 122 123
e 122 125
e 122 160
e 122 161
e 122 162
e 122 163
e 122 164
e 122 165
e 123 124
e 123 126
e 123 160
e 123 161
e 123 162
e 123 163
e 123 164
e 123 165
e 124 126
e 127 128
e 127 129
e 127 130
e 127 131
e 127 132
e 127 133
e 127 134
e 127 135
e 128 129
e 128 130
e 128 131
e 128 132
e 128 133
e 128 134
e 128 135
e 129 130
e 129 131
e 129 132
e 129 133
e 129 134
e 129 135
e 130 131
e 130 132
e 130 133
e 130 134
e 130 135
e 130 136
e 130 138
e 130 139
e 130 141
e 130 172
e 131 132
e 131 133
e 131 134
e 131 135
e 131 137
e 131 173
e 131 174
e 131 176
e 131 177
e 132 133
e 132 134
e 132 135
e 132 136
e 132 138
e 132 139
e 132 141
e 132 173
e 132 174
e 132 176
e 132 177
e 133 134
e 133 135
e 133 136
e 133 137
e 133 138
e 133 139
e 133 141
e 133 175
e 134 135
e 134 136
e 134 138
e 134 139
e 134 140
e 134 141
e 134 173
e 134 174
e 134 176
e 134 177
e 135 136
e 135 137
e 135 138
e 135 139
e 135 141
e 135 173
e 135 174
e 135 176
e 135 177
e 136 138
e 136 139
e 136 140
e 136 141
e 136 142
e 136 144
e 136 145
e 136 147
e 136 178
e 137 138
e 137 139
e 137 140
e 137 141
e 137 143
e 137 179
e 137 180
e 137 182
e 137 183
e 138 139
e 138 140
e 138 141
e 138 142
e 138 144
e 138 145
e 138 147
e 138 179
e 138 180
e 138 182
e 138 183
e 139 140
e 139 141
e 139 142
e 139 143
e 139 144
e 139 145
e 139 147
e 139 181
e 140 141
e 140 142
e 140 144
e 140 145
e 140 146
e 140 147
e 140 179
e 140 180
e 140 182
e 140 183
e 141 142
e 141 143
e 141 144
e 141 145
e 141 147
e 141 179
e 141 180
e 141 182
e 141 183
e 142 143
e 142 144
e 142 145
e 142 146
e 142 147
e 142 148
e 142 150
e 142 151
e 142 153
e 142 184
e 143 144
e 143 145
e 143 146
e 143 147
e 143 149
e 143 185
e 143 186
e 143 188
e 143 189
e 144 145
e 144 146
e 144 147
e 144 148
e 144 150
e 144 151
e 144 153
e 144 185
e 144 186
e 144 188
e 144 189
e 145 146
e 145 147
e 145 148
e 145 150
e 145 151
e 145 153
e 145 187
e 146 147
e 146 152
e 146 185
e 146 186
e 146 188
e 146 189
e 147 148
e 147 150
e 147 151
e 147 153
e 147 185
e 147 186
e 147 188
e 147 189
e 148 149
e 148 150
e 148 151
e 148 152
e 148 154
e 148 156
e 148 157
e 148 159
e 148 190
e 149 150
e 149 151
e 149 152
e 149 153
e 149 155
e 149 191
e 149 192
e 149 194
e 149 195
e 150 151
e 150 152
e 150 153
e 150 154
e 150 156
e 150 157
e 150 159
e 150 191
e 150 192
e 150 194
e 150 195
e 151 152
e 151 153
e 151 154
e 151 156
e 151 157
e 151 159
e 151 193
e 152 153
e 152 158
e 152 191
e 152 192
e 152 194
e 152 195
e 153 154
e 153 156
e 153 157
e 153 159
e 153 191
e 153 192
e 153 194
e 153 195
e 154 155
e 154 156
e 154 157
e 154 158
e 154 159
e 154 160
e 154 162
e 154 163
e 154 165
e 154 196
e 155 156
e 155 157
e 155 158
e 155 159
e 155 161
e 155 197
e 155 198
e 155 200
e 155 201
e 156 157
e 156 158
e 156 159
e 156 160
e 156 162
e 156 163
e 156 165
e 156 197
e 156 198
e 156 200
e 156 201
e 157 158
e 157 159
e 157 160
e 157 161
e 157 162
e 157 163
e 157 165
e 157 199
e 158 159
e 158 160
e 158 162
e 158 163
e 158 164
e 158 165
e 158 197
e 158 198
e 158 200
e 158 201
e 159 160
e 159 161
e 159 162
e 159 163
e 159 165
e 159 197
e 159 198
e 159 200
e 159 201
e 160 161
e 160 162
e 160 163
e 160 164
e 160 165
e 160 167
e 160 202
e 161 162
e 161 163
e 161 164
e 161 165
e 161 166
e 161 168
e 161 203
e 161 204
e 161 206
e 161 207
e 162 163
e 162 164
e 162 165
e 162 167
e 162 203
e 162 204
e 162 206
e 162 207
e 163 164
e 163 165
e 163 166
e 163 168
e 163 205
e 164 165
e 164 167
e 164 203
e 164 204
e 164 206
e 164 207
e 165 166
e 165 168
e 165 203
e 165 204
e 165 206
e 165 207
e 166 168
e 169 170
e 169 171
e 169 172
e 169 173
e 169 174
e 169 175
e 169 176
e 169 177
e 170 171
e 170 172
e 170 173
e 170 174
e 170 175
e 170 176
e 170 177
e 171 172
e 171 173
e 171 174
e 171 175
e 171 176
e 171 177
e 172 173
e 172 174
e 172 175
e 172 176
e 172 177
e 172 178
e 172 180
e 172 181
e 172 183
e 172 214
e 173 174
e 173 175
e 173 176
e 173 177
e 173 179
e 173 215
e 173 216
e 173 218
e 173 219
e 174 175
e 174 176
e 174 177
e 174 178
e 174 180
e 174 181
e 174 183
e 174 215
e 174 216
e 174 218
e 174 219
e 175 176
e 175 177
e 175 178
e 175 179
e 175 180
e 175 181
e 175 183
e 175 217
e 176 177
e 176 178
e 176 180
e 176 181
e 176 182
e 176 183
e 176 215
e 176 216
e 176 218
e 176 219
e 177 178
e 177 179
e 177 180
e 177 181
e 177 183
e 177 215
e 177 216
e 177 218
e 177 219
e 178 180
e 178 181
e 178 182
e 178 183
e 178 184
e 178 186
e 178 187
e 178 189
e 178 220
e 179 180
e 179 181
e 179 182
e 179 183
e 179 185
e 179 221
e 179 222
e 179 224
e 179 225
e 180 181
e 180 182
e 180 183
e 180 184
e 180 186
e 180 187
e 180 189
e 180 221
e 180 222
e 180 224
e 180 225
e 181 182
e 181 183
e 181 184
e 181 185
e 181 186
e 181 187
e 181 189
e 181 223
e 182 183
e 182 184
e 182 186
e 182 187
e 182 188
e 182 189
e 182 221
e 182 222
e 182 224
e 182 225
e 183 184
e 183 185
e 183 186
e 183 187
e 183 189
e 183 221
e 183 222
e 183 224
e 183 225
e 184 186
e 184 187
e 184 188
e 184 189
e 184 190
e 184 192
e 184 193
e 184 195
e 184 226
e 185 186
e 185 188
e 185 189
e 185 191
e 185 227
e 185 228
e 185 230
e 185 231
e 186 187
e 186 188
e 186 189
e 186 190
e 186 192
e 186 193
e 186 195
e 186 227
e 186 228
e 186 230
e 186 231
e 187 188
e 187 189
e 187 190
e 187 192
e 187 193
e 187 195
e 187 229
e 188 189
e 188 190
e 188 192
e 188 193
e 188 194
e 188 195
e 188 227
e 188 228
e 188 230
e 188 231
e 189 190
e 189 191
e 189 192
e 189 193
e 189 195
e 189 227
e 189 228
e 189 230
e 189 231
e 190 192
e 190 193
e 190 194
e 190 196
e 190 198
e 190 199
e 190 201
e 190 232
e 191 192
e 191 194
e 191 195
e 191 197
e 191 233
e 191 234
e 191 236
e 191 237
e 192 193
e 192 194
e 192 195
e 192 196
e 192 198
e 192 199
e 192 201
e 192 233
e 192 234
e 192 236
e 192 237
e 193 194
e 193 195
e 193 196
e 193 198
e 193 199
e 193 201
e 193 235
e 194 195
e 194 196
e 194 198
e 194 199
e 194 200
e 194 201
e 194 233
e 194 234
e 194 236
e 194 237
e 195 196
e 195 197
e 195 198
e 195 199
e 195 201
e 195 233
e 195 234
e 195 236
e 195 237
e 196 198
e 196 199
e 196 200
e 196 201
e 196 202
e 196 204
e 196 205
e 196 207
e 196 238
e 197 198
e 197 199
e 197 200
e 197 201
e 197 203
e 197 239
e 197 240
e 197 242
e 197 243
e 198 199
e 198 200
e 198 201
e 198 202
e 198 204
e 198 205
e 198 207
e 198 239
e 198 240
e 198 242
e 198 243
e 199 200
e 199 201
e 199 202
e 199 203
e 199 204
e 199 205
e 199 207
e 199 241
e 200 201
e 200 202
e 200 204
e 200 205
e 200 206
e 200 207
e 200 239
e 200 240
e 200 242
e 200 243
e 201 202
e 201 203
e 201 204
e 201 205
e 201 207
e 201 239
e 201 240
e 201 242
e 201 243
e 202 204
e 202 205
e 202 206
e 202 207
e 202 209
e 202 244
e 203 204
e 203 205
e 203 206
e 203 207
e 203 208
e 203 210
e 203 245
e 203 246
e 203 248
e 203 249
e 204 205
e 204 206
e 204 207
e 204 209
e 204 245
e 204 246
e 204 248
e 204 249
e 205 207
e 205 208
e 205 210
e 205 247
e 206 207
e 206 209
e 206 245
e 206 246
e 206 248
e 206 249
e 207 208
e 207 210
e 207 245
e 207 246
e 207 248
e 207 249
e 208 210
e 211 212
e 211 213
e 211 214
e 211 215
e 211 216
e 211 217
e 211 218
e 211 219
e 212 213
e 212 214
e 212 215
e 212 216
e 212 217
e 212 218
e 212 219
e 213 214
e 213 215
e 213 216
e 213 217
e 213 218
e 213 219
e 214 215
e 214 216
e 214 217
e 214 218
e 214 219
e 214 220
e 214 222
e 214 223
e 214 225
e 214 256
e 215 216
e 215 217
e 215 218
e 215 219
e 215 221
e 215 257
e 215 258
e 215 260
e 215 261
e 216 217
e 216 218
e 216 219
e 216 220
e 216 222
e 216 223
e 216 225
e 216 257
e 216 258
e 216 260
e 216 261
e 217 218
e 217 219
e 217 220
e 217 221
e 217 222
e 217 223
e 217 225
e 217 259
e 218 219
e 218 220
e 218 222
e 218 223
e 218 224
e 218 225
e 218 257
e 218 258
e 218 260
e 218 261
e 219 220
e 219 221
e 219 222
e 219 223
e 219 225
e 219 257
e 219 258
e 219 260
e 219 261
e 220 222
e 220 223
e 220 224
e 220 225
e 220 226
e 220 228
e 220 229
e 220 231
e 220 262
e 221 222
e 221 223
e 221 224
e 221 225
e 221 227
e 221 263
e 221 264
e 221 266
e 221 267
e 222 223
e 222 224
e 222 225
e 222 226
e 222 228
e 222 229
e 222 231
e 222 263
e 222 264
e 222 266
e 222 267
e 223 224
e 223 225
e 223 226
e 223 227
e 223 228
e 223 229
e 223 231
e 223 265
e 224 225
e 224 226
e 224 228
e 224 229
e 224 230
e 224 231
e 224 263
e 224 264
e 224 266
e 224 267
e 225 226
e 225 228
e 225 229
e 225 231
e 225 263
e 225 264
e 225 266
e 225 267
e 226 228
e 226 229
e 226 231
e 226 232
e 226 234
e 226 235
e 226 237
e 226 268
e 227 228
e 227 230
e 227 231
e 227 233
e 227 269
e 227 270
e 227 272
e 227 273
e 228 229
e 228 230
e 228 231
e 228 232
e 228 234
e 228 235
e 228 237
e 228 269
e 228 270
e 228 272
e 228 273
e 229 231
e 229 232
e 229 234
e 229 235
e 229 237
e 229 271
e 230 231
e 230 236
e 230 269
e 230 270
e 230 272
e 230 273
e 231 232
e 231 234
e 231 235
e 231 237
e 231 269
e 231 270
e 231 272
e 231 273
e 232 234
e 232 235
e 232 238
e 232 240
e 232 241
e 232 243
e 232 274
e 233 234
e 233 236
e 233 237
e 233 239
e 233 275
e 233 276
e 233 278
e 233 279
e 234 235
e 234 236
e 234 237
e 234 238
e 234 240
e 234 241
e 234 243
e 234 275
e 234 276
e 234 278
e 234 279
e 235 237
e 235 238
e 235 240
e 235 241
e 235 243
e 235 277
e 236 237
e 236 242
e 236 275
e 236 276
e 236 278
e 236 279
e 237 238
e 237 240
e 237 241
e 237 243
e 237 275
e 237 276
e 237 278
e 237 279
e 238 240
e 238 241
e 238 242
e 238 243
e 238 244
e 238 246
e 238 247
e 238 249
e 238 280
e 239 240
e 239 241
e 239 242
e 239 243
e 239 245
e 239 281
e 239 282
e 239 284
e 239 285
e 240 241
e 240 242
e 240 243
e 240 244
e 240 246
e 240 247
e 240 249
e 240 281
e 240 282
e 240 284
e 240 285
e 241 242
e 241 243
e 241 244
e 241 245
e 241 246
e 241 247
e 241 249
e 241 283
e 242 243
e 242 244
e 242 246
e 242 247
e 242 248
e 242 249
e 242 281
e 242 282
e 242 284
e 242 285
e 243 244
e 243 245
e 243 246
e 243 247
e 243 249
e 243 281
e 243 282
e 243 284
e 243 285
e 244 246
e 244 247
e 244 248
e 244 249
e 244 251
e 244 286
e 245 246
e 245 247
e 245 248
e 245 249
e 245 250
e 245 252
e 245 287
e 245 288
e 245 290
e 245 291
e 246 247
e 246 248
e 246 249
e 246 251
e 246 287
e 246 288
e 246 290
e 246 291
e 247 249
e 247 250
e 247 252
e 247 289
e 248 249
e 248 251
e 248 287
e 248 288
e 248 290
e 248 291
e 249 250
e 249 252
e 249 287
e 249 288
e 249 290
e 249 291
e 250 252
e 253 254
e 253 255
e 253 256
e 253 257
e 253 258
e 253 259
e 253 260
e 253 261
e 254 255
e 254 256
e 254 257
e 254 258
e 254 259
e 254 260
e 254 261
e 255 256
e 255 257
e 255 258
e 255 259
e 255 260
e 255 261
e 256 257
e 256 258
e 256 259
e 256 260
e 256 261
e 256 262
e 256 264
e 256 265
e 256 267
e 256 298
e 257 258
e 257 259
e 257 260
e 257 261
e 257 263
e 257 299
e 257 300
e 257 302
e 257 303
e 258 259
e 258 260
e 258 261
e 258 262
e 258 264
e 258 265
e 258 267
e 258 299
e 258 300
e 258 302
e 258 303
e 259 260
e 259 261
e 259 262
e 259 263
e 259 264
e 259 265
e 259 267
e 259 301
e 260 261
e 260 262
e 260 264
e 260 265
e 260 266
e 260 267
e 260 299
e 260 300
e 260 302
e 260 303
e 261 262
e 261 263
e 261 264
e 261 265
e 261 267
e 261 299
e 261 300
e 261 302
e 261 303
e 262 264
e 262 265
e 262 266
e 262 267
e 262 268
e 262 270
e 262 271
e 262 273
e 262 304
e 263 264
e 263 265
e 263 266
e 263 267
e 263 269
e 263 305
e 263 306
e 263 308
e 263 309
e 264 265
e 264 266
e 264 267
e 264 268
e 264 270
e 264 271
e 264 273
e 264 305
e 264 306
e 264 308
e 264 309
e 265 266
e 265 267
e 265 268
e 265 269
e 265 270
e 265 271
e 265 273
e 265 307
e 266 267
e 266 268
e 266 270
e 266 271
e 266 272
e 266 273
e 266 305
e 266 306
e 266 308
e 266 309
e 267 268
e 267 269
e 267 270
e 267 271
e 267 273
e 267 305
e 267 306
e 267 308
e 267 309
e 268 270
e 268 271
e 268 273
e 268 274
e 268 276
e 268 277
e 268 279
e 268 310
e 269 270
e 269 272
e 269 273
e 269 275
e 269 311
e 269 312
e 269 314
e 269 315
e 270 271
e 270 272
e 270 273
e 270 274
e 270 276
e 270 277
e 270 279
e 270 311
e 270 312
e 270 314
e 270 315
e 271 273
e 271 274
e 271 276
e 271 277
e 271 279
e 271 313
e 272 273
e 272 278
e 272 311
e 272 312
e 272 314
e 272 315
e 273 274
e 273 276
e 273 277
e 273 279
e 273 311
e 273 312
e 273 314
e 273 315
e 274 276
e 274 277
e 274 280
e 274 282
e 274 283
e 274 285
e 274 316
e 275 276
e 275 278
e 275 279
e 275 281
e 275 317
e 275 318
e 275 320
e 275 321
e 276 277
e 276 278
e 276 279
e 276 280
e 276 282
e 276 283
e 276 285
e 276 317
e 276 318
e 276 320
e 276 321
e 277 279
e 277 280
e 277 282
e 277 283
e 277 285
e 277 319
e 278 279
e 278 284
e 278 317
e 278 318
e 278 320
e 278 321
e 279 280
e 279 282
e 279 283
e 279 285
e 279 317
e 279 318
e 279 320
e 279 321
e 280 282
e 280 283
e 280 284
e 280 285
e 280 286
e 280 288
e 280 289
e 280 291
e 280 322
e 281 282
e 281 283
e 281 284
e 281 285
e 281 287
e 281 323
e 281 324
e 281 326
e 281 327
e 282 283
e 282 284
e 282 285
e 282 286
e 282 288
e 282 289
e 282 291
e 282 323
e 282 324
e 282 326
e 282 327
e 283 284
e 283 285
e 283 286
e 283 287
e 283 288
e 283 289
e 283 291
e 283 325
e 284 285
e 284 286
e 284 288
e 284 289
e 284 290
e 284 291
e 284 323
e 284 324
e 284 326
e 284 327
e 285 286
e 285 287
e 285 288
e 285 289
e 285 291
e 285 323
e 285 324
e 285 326
e 285 327
e 286 288
e 286 289
e 286 290
e 286 291
e 286 293
e 286 328
e 287 288
e 287 289
e 287 290
e 287 291
e 287 292
e 287 294
e 287 329
e 287 330
e 287 332
e 287 333
e 288 289
e 288 290
e 288 291
e 288 293
e 288 329
e 288 330
e 288 332
e 288 333
e 289 291
e 289 292
e 289 294
e 289 331
e 290 291
e 290 293
e 290 329
e 290 330
e 290 332
e 290 333
e 291 292
e 291 294
e 291 329
e 291 330
e 291 332
e 291 333
e 292 294
e 295 296
e 295 297
e 295 298
e 295 299
e 295 300
e 295 301
e 295 302
e 295 303
e 296 297
e 296 298
e 296 299
e 296 300
e 296 301
e 296 302
e 296 303
e 297 298
e 297 299
e 297 300
e 297 301
e 297 302
e 297 303
e 298 299
e 298 300
e 298 301
e 298 302
e 298 303
e 298 304
e 298 306
e 298 307
e 298 309
e 298 340
e 298 341
e 298 342
e 298 343
e 298 344
e 298 345
e 299 300
e 299 301
e 299 302
e 299 303
e 299 305
e 299 340
e 299 341
e 299 342
e 299 343
e 299 344
e 299 345
e 300 301
e 300 302
e 300 303
e 300 304
e 300 306
e 300 307
e 300 309
e 300 340
e 300 341
e 300 342
e 300 343
e 300 344
e 300 345
e 301 302
e 301 303
e 301 304
e 301 305
e 301 306
e 301 307
e 301 309
e 301 340
e 301 341
e 301 342
e 301 343
e 301 344
e 301 345
e 302 303
e 302 304
e 302 306
e 302 307
e 302 308
e 302 309
e 302 340
e 302 341
e 302 342
e 302 343
e 302 344
e 302 345
e 303 304
e 303 305
e 303 306
e 303 307
e 303 309
e 303 340
e 303 341
e 303 342
e 303 343
e 303 344
e 303 345
e 304 306
e 304 307
e 304 308
e 304 309
e 304 310
e 304 312
e 304 313
e 304 315
e 304 346
e 305 306
e 305 307
e 305 308
e 305 309
e 305 311
e 305 347
e 305 348
e 305 350
e 305 351
e 306 307
e 306 308
e 306 309
e 306 310
e 306 312
e 306 313
e 306 315
e 306 347
e 306 348
e 306 350
e 306 351
e 307 308
e 307 309
e 307 310
e 307 311
e 307 312
e 307 313
e 307 315
e 307 349
e 308 309
e 308 310
e 308 312
e 308 313
e 308 314
e 308 315
e 308 347
e 308 348
e 308 350
e 308 351
e 309 310
e 309 311
e 309 312
e 309 313
e 309 315
e 309 347
e 309 348
e 309 350
e 309 351
e 310 311
e 310 312
e 310 313
e 310 314
e 310 315
e 310 316
e 310 318
e 310 319
e 310 321
e 310 352
e 310 353
e 310 354
e 310 355
e 310 356
e 310 357
e 311 312
e 311 313
e 311 314
e 311 315
e 311 317
e 311 352
e 311 353
e 311 354
e 311 355
e 311 356
e 311 357
e 312 313
e 312 314
e 312 315
e 312 316
e 312 318
e 312 319
e 312 321
e 312 352
e 312 353
e 312 354
e 312 355
e 312 356
e 312 357
e 313 314
e 313 315
e 313 316
e 313 318
e 313 319
e 313 321
e 313 352
e 313 353
e 313 354
e 313 355
e 313 356
e 313 357
e 314 315
e 314 316
e 314 318
e 314 319
e 314 320
e 314 321
e 314 352
e 314 353
e 314 354
e 314 355
e 314 356
e 314 357
e 315 316
e 315 317
e 315 318
e 315 319
e 315 321
e 315 352
e 315 353
e 315 354
e 315 355
e 315 356
e 315 357
e 316 317
e 316 318
e 316 319
e 316 320
e 316 321
e 316 322
e 316 324
e 316 325
e 316 327
e 316 358
e 316 359
e 316 360
e 316 361
e 316 362
e 316 363
e 317 318
e 317 319
e 317 320
e 317 321
e 317 323
e 317 358
e 317 359
e 317 360
e 317 361
e 317 362
e 317 363
e 318 319
e 318 320
e 318 321
e 318 322
e 318 324
e 318 325
e 318 327
e 318 358
e 318 359
e 318 360
e 318 361
e 318 362
e 318 363
e 319 320
e 319 321
e 319 322
e 319 324
e 319 325
e 319 327
e 319 358
e 319 359
e 319 360
e 319 361
e 319 362
e 319 363
e 320 321
e 320 322
e 320 324
e 320 325
e 320 326
e 320 327
e 320 358
e 320 359
e 320 360
e 320 361
e 320 362
e 320 363
e 321 322
e 321 323
e 321 324
e 321 325
e 321 327
e 321 358
e 321 359
e 321 360
e 321 361
e 321 362
e 321 363
e 322 323
e 322 324
e 322 325
e 322 326
e 322 327
e 322 328
e 322 330
e 322 331
e 322 333
e 322 364
e 322 365
e 322 366
e 322 367
e 322 368
e 322 369
e 323 324
e 323 325
e 323 326
e 323 327
e 323 329
e 323 364
e 323 365
e 323 366
e 323 367
e 323 368
e 323 369
e 324 325
e 324 326
e 324 327
e 324 328
e 324 330
e 324 331
e 324 333
e 324 364
e 324 365
e 324 366
e 324 367
e 324 368
e 324 369
e 325 326
e 325 327
e 325 328
e 325 329
e 325 330
e 325 331
e 325 333
e 325 364
e 325 365
e 325 366
e 325 367
e 325 368
e 325 369
e 326 327
e 326 328
e 326 330
e 326 331
e 326 332
e 326 333
e 326 364
e 326 365
e 326 366
e 326 367
e 326 368
e 326 369
e 327 328
e 327 329
e 327 330
e 327 331
e 327 333
e 327 364
e 327 365
e 327 366
e 327 367
e 327 368
e 327 369
e 328 329
e 328 330
e 328 331
e 328 332
e 328 333
e 328 335
e 328 370
e 328 371
e 328 372
e 328 373
e 328 374
e 328 375
e 329 330
e 329 331
e 329 332
e 329 333
e 329 334
e 329 336
e 329 370
e 329 371
e 329 372
e 329 373
e 329 374
e 329 375
e 330 331
e 330 332
e 330 333
e 330 335
e 330 370
e 330 371
e 330 372
e 330 373
e 330 374
e 330 375
e 331 332
e 331 333
e 331 334
e 331 336
e 331 370
e 331 371
e 331 372
e 331 373
e 331 374
e 331 375
e 332 333
e 332 335
e 332 370
e 332 371
e 332 372
e 332 373
e 332 374
e 332 375
e 333 334
e 333 336
e 333 370
e 333 371
e 333 372
e 333 373
e 333 374
e 333 375
e 334 336
e 337 338
e 337 339
e 337 340
e 337 341
e 337 342
e 337 343
e 337 344
e 337 345
e 338 339
e 338 340
e 338 341
e 338 342
e 338 343
e 338 344
e 338 345
e 339 340
e 339 341
e 339 342
e 339 343
e 339 344
e 339 345
e 340 341
e 340 342
e 340 343
e 340 344
e 340 345
e 340 346
e 340 348
e 340 349
e 340 351
e 340 382
e 340 383
e 340 384
e 340 385
e 340 386
e 340 387
e 341 342
e 341 343
e 341 344
e 341 345
e 341 347
e 341 382
e 341 383
e 341 384
e 341 385
e 341 386
e 341 387
e 342 343
e 342 344
e 342 345
e 342 346
e 342 348
e 342 349
e 342 351
e 342 382
e 342 383
e 342 384
e 342 385
e 342 386
e 342 387
e 343 344
e 343 345
e 343 346
e 343 347
e 343 348
e 343 349
e 343 351
e 343 382
e 343 383
e 343 384
e 343 385
e 343 386
e 343 387
e 344 345
e 344 346
e 344 348
e 344 349
e 344 350
e 344 351
e 344 382
e 344 383
e 344 384
e 344 385
e 344 386
e 344 387
e 345 346
e 345 347
e 345 348
e 345 349
e 345 351
e 345 382
e 345 383
e 345 384
e 345 385
e 345 386
e 345 387
e 346 347
e 346 348
e 346 349
e 346 350
e 346 351
e 346 352
e 346 354
e 346 355
e 346 357
e 346 388
e 346 389
e 346 390
e 346 391
e 346 392
e 346 393
e 347 348
e 347 349
e 347 350
e 347 351
e 347 353
e 347 388
e 347 389
e 347 390
e 347 391
e 347 392
e 347 393
e 348 349
e 348 350
e 348 351
e 348 352
e 348 354
e 348 355
e 348 357
e 348 388
e 348 389
e 348 390
e 348 391
e 348 392
e 348 393
e 349 350
e 349 351
e 349 352
e 349 354
e 349 355
e 349 357
e 349 388
e 349 389
e 349 390
e 349 391
e 349 392
e 349 393
e 350 351
e 350 352
e 350 354
e 350 355
e 350 356
e 350 357
e 350 388
e 350 389
e 350 390
e 350 391
e 350 392
e 350 393
e 351 352
e 351 353
e 351 354
e 351 355
e 351 357
e 351 388
e 351 389
e 351 390
e 351 391
e 351 392
e 351 393
e 352 353
e 352 354
e 352 355
e 352 356
e 352 357
e 352 358
e 352 360
e 352 361
e 352 363
e 352 394
e 352 395
e 352 396
e 352 397
e 352 398
e 352 399
e 353 354
e 353 355
e 353 356
e 353 357
e 353 359
e 353 394
e 353 395
e 353 396
e 353 397
e 353 398
e 353 399
e 354 355
e 354 356
e 354 357
e 354 358
e 354 360
e 354 361
e 354 363
e 354 394
e 354 395
e 354 396
e 354 397
e 354 398
e 354 399
e 355 356
e 355 357
e 355 358
e 355 359
e 355 360
e 355 361
e 355 363
e 355 394
e 355 395
e 355 396
e 355 397
e 355 398
e 355 399
e 356 357
e 356 358
e 356 360
e 356 361
e 356 362
e 356 363
e 356 394
e 356 395
e 356 396
e 356 397
e 356 398
e 356 399
e 357 358
e 357 359
e 357 360
e 357 361
e 357 363
e 357 394
e 357 395
e 357 396
e 357 397
e 357 398
e 357 399
e 358 359
e 358 360
e 358 361
e 358 362
e 358 363
e 358 364
e 358 366
e 358 367
e 358 369
e 358 400
e 358 401
e 358 402
e 358 403
e 358 404
e 358 405
e 359 360
e 359 361
e 359 362
e 359 363
e 359 365
e 359 400
e 359 401
e 359 402
e 359 403
e 359 404
e 359 405
e 360 361
e 360 362
e 360 363
e 360 364
e 360 366
e 360 367
e 360 369
e 360 400
e 360 401
e 360 402
e 360 403
e 360 404
e 360 405
e 361 362
e 361 363
e 361 364
e 361 365
e 361 366
e 361 367
e 361 369
e 361 400
e 361 401
e 361 402
e 361 403
e 361 404
e 361 405
e 362 363
e 362 364
e 362 366
e 362 367
e 362 368
e 362 369
e 362 400
e 362 401
e 362 402
e 362 403
e 362 404
e 362 405
e 363 364
e 363 365
e 363 366
e 363 367
e 363 369
e 363 400
e 363 401
e 363 402
e 363 403
e 363 404
e 363 405
e 364 365
e 364 366
e 364 367
e 364 368
e 364 369
e 364 370
e 364 372
e 364 373
e 364 375
e 364 406
e 364 407
e 364 408
e 364 409
e 364 410
e 364 411
e 365 366
e 365 367
e 365 368
e 365 369
e 365 371
e 365 406
e 365 407
e 365 408
e 365 409
e 365 410
e 365 411
e 366 367
e 366 368
e 366 369
e 366 370
e 366 372
e 366 373
e 366 375
e 366 406
e 366 407
e 366 408
e 366 409
e 366 410
e 366 411
e 367 368
e 367 369
e 367 370
e 367 371
e 367 372
e 367 373
e 367 375
e 367 406
e 367 407
e 367 408
e 367 409
e 367 410
e 367 411
e 368 369
e 368 370
e 368 372
e 368 373
e 368 374
e 368 375
e 368 406
e 368 407
e 368 408
e 368 409
e 368 410
e 368 411
e 369 370
e 369 371
e 369 372
e 369 373
e 369 375
e 369 406
e 369 407
e 369 408
e 369 409
e 369 410
e 369 411
e 370 371
e 370 372
e 370 373
e 370 374
e 370 375
e 370 377
e 370 412
e 370 413
e 370 414
e 370 415
e 370 416
e 370 417
e 371 372
e 371 373
e 371 374
e 371 375
e 371 376
e 371 378
e 371 412
e 371 413
e 371 414
e 371 415
e 371 416
e 371 417
e 372 373
e 372 374
e 372 375
e 372 377
e 372 412
e 372 413
e 372 414
e 372 415
e 372 416
e 372 417
e 373 374
e 373 375
e 373 376
e 373 378
e 373 412
e 373 413
e 373 414
e 373 415
e 373 416
e 373 417
e 374 375
e 374 377
e 374 412
e 374 413
e 374 414
e 374 415
e 374 416
e 374 417
e 375 376
e 375 378
e 375 412
e 375 413
e 375 414
e 375 415
e 375 416
e 375 417
e 376 378
e 379 383
e 379 385
e 380 382
e 380 386
e 381 387
e 382 383
e 382 384
e 382 385
e 382 386
e 382 387
e 382 388
e 382 390
e 382 391
e 382 393
e 383 384
e 383 385
e 383 386
e 383 387
e 383 389
e 384 385
e 384 386
e 384 387
e 384 388
e 384 390
e 384 391
e 384 393
e 385 386
e 385 387
e 385 388
e 385 389
e 385 390
e 385 391
e 385 393
e 386 387
e 386 388
e 386 390
e 386 391
e 386 392
e 386 393
e 387 388
e 387 389
e 387 390
e 387 391
e 387 393
e 388 389
e 388 390
e 388 391
e 388 392
e 388 393
e 388 394
e 388 396
e 388 397
e 388 399
e 389 390
e 389 391
e 389 392
e 389 393
e 389 395
e 390 391
e 390 392
e 390 393
e 390 394
e 390 396
e 390 397
e 390 399
e 391 392
e 391 393
e 391 394
e 391 396
e 391 397
e 391 399
e 392 393
e 392 394
e 392 396
e 392 397
e 392 398
e 392 399
e 393 394
e 393 395
e 393 396
e 393 397
e 393 399
e 394 395
e 394 396
e 394 397
e 394 398
e 394 399
e 394 400
e 394 402
e 394 403
e 394 405
e 395 396
e 395 397
e 395 398
e 395 399
e 395 401
e 396 397
e 396 398
e 396 399
e 396 400
e 396 402
e 396 403
e 396 405
e 397 398
e 397 399
e 397 400
e 397 402
e 397 403
e 397 405
e 398 399
e 398 400
e 398 402
e 398 403
e 398 404
e 398 405
e 399 400
e 399 401
e 399 402
e 399 403
e 399 405
e 400 401
e 400 402
e 400 403
e 400 404
e 400 405
e 400 406
e 400 408
e 400 409
e 400 411
e 401 402
e 401 403
e 401 404
e 401 405
e 401 407
e 402 404
e 402 405
e 402 406
e 402 408
e 402 409
e 402 411
e 403 404
e 403 405
e 403 406
e 403 408
e 403 409
e 403 411
e 404 405
e 404 406
e 404 408
e 404 409
e 404 410
e 404 411
e 405 406
e 405 407
e 405 408
e 405 409
e 405 411
e 406 407
e 406 408
e 406 409
e 406 410
e 406 411
e 406 412
e 406 414
e 406 415
e 406 417
e 407 408
e 407 409
e 407 410
e 407 411
e 407 413
e 408 409
e 408 410
e 408 411
e 408 412
e 408 414
e 408 415
e 408 417
e 409 410
e 409 411
e 409 412
e 409 413
e 409 414
e 409 415
e 409 417
e 410 411
e 410 412
e 410 414
e 410 415
e 410 416
e 410 417
e 411 412
e 411 413
e 411 414
e 411 415
e 411 417
e 412 413
e 412 414
e 412 415
e 412 416
e 412 417
e 412 419
e 413 414
e 413 415
e 413 416
e 413 417
e 413 418
e 414 415
e 414 416
e 414 417
e 415 416
e 415 417
e 415 418
e 416 417
e 416 419
e 417 420
